NAME          
ROWS
 N  OBJ
 L  c1
 L  c2
COLUMNS
    MARKER    'MARKER'                 'INTORG'
    x[1]      c1        828
    x[1]      c2        566
    x[1]      OBJ       -418
    x[2]      c1        282
    x[2]      c2        935
    x[2]      OBJ       -388
    x[3]      c1        917
    x[3]      c2        361
    x[3]      OBJ       -859
    x[4]      c1        55
    x[4]      c2        442
    x[4]      OBJ       -182
    x[5]      c1        103
    x[5]      c2        234
    x[5]      OBJ       -345
    x[6]      c1        432
    x[6]      c2        271
    x[6]      OBJ       -321
    x[7]      c1        139
    x[7]      c2        619
    x[7]      OBJ       -666
    x[8]      c1        961
    x[8]      c2        77
    x[8]      OBJ       -345
    x[9]      c1        636
    x[9]      c2        821
    x[9]      OBJ       -831
    x[10]     c1        253
    x[10]     c2        259
    x[10]     OBJ       -60
    x[11]     c1        816
    x[11]     c2        549
    x[11]     OBJ       -779
    x[12]     c1        67
    x[12]     c2        287
    x[12]     OBJ       -193
    x[13]     c1        841
    x[13]     c2        356
    x[13]     OBJ       -130
    x[14]     c1        539
    x[14]     c2        185
    x[14]     OBJ       -492
    x[15]     c1        101
    x[15]     c2        851
    x[15]     OBJ       -560
    x[16]     c1        761
    x[16]     c2        864
    x[16]     OBJ       -626
    x[17]     c1        974
    x[17]     c2        189
    x[17]     OBJ       -860
    x[18]     c1        396
    x[18]     c2        672
    x[18]     OBJ       -910
    x[19]     c1        234
    x[19]     c2        674
    x[19]     OBJ       -754
    x[20]     c1        418
    x[20]     c2        140
    x[20]     OBJ       -827
RHS
    rhs       c1        4876
    rhs       c2        4676
RANGES
BOUNDS
 LO bounds    x[1]      0
 PL bounds    x[1]
 LO bounds    x[2]      0
 PL bounds    x[2]
 LO bounds    x[3]      0
 PL bounds    x[3]
 LO bounds    x[4]      0
 PL bounds    x[4]
 LO bounds    x[5]      0
 PL bounds    x[5]
 LO bounds    x[6]      0
 PL bounds    x[6]
 LO bounds    x[7]      0
 PL bounds    x[7]
 LO bounds    x[8]      0
 PL bounds    x[8]
 LO bounds    x[9]      0
 PL bounds    x[9]
 LO bounds    x[10]     0
 PL bounds    x[10]
 LO bounds    x[11]     0
 PL bounds    x[11]
 LO bounds    x[12]     0
 PL bounds    x[12]
 LO bounds    x[13]     0
 PL bounds    x[13]
 LO bounds    x[14]     0
 PL bounds    x[14]
 LO bounds    x[15]     0
 PL bounds    x[15]
 LO bounds    x[16]     0
 PL bounds    x[16]
 LO bounds    x[17]     0
 PL bounds    x[17]
 LO bounds    x[18]     0
 PL bounds    x[18]
 LO bounds    x[19]     0
 PL bounds    x[19]
 LO bounds    x[20]     0
 PL bounds    x[20]
ENDATA
